24 4
92 21 12 56 55 27 54 49 43 41 17 49 44 92 60 48 82 65 13 42 59 79 44 74
100 58 23 70 72 16 71 45 60 72 31 35 17 43 51 23 34 37 50 98 17 62 11 80
74 40 78 94 40 93 60 32 81 55 53 54 44 63 88 29 98 81 69 93 59 39 16 11
86 29 100 100 36 56 43 14 85 49 88 63 14 15 64 94 97 23 55 46 62 12 59 17
